(set-info :smt-lib-version 2.6)
(set-logic QF_LRA)
(set-info :source | Clock Synchronization. Bruno Dutertre (bruno@csl.sri.com) |)
(set-info :category "industrial")
(set-info :status unsat)
(declare-fun x_0 () Real)
(declare-fun x_1 () Real)
(declare-fun x_2 () Real)
(declare-fun x_3 () Real)
(declare-fun x_4 () Real)
(declare-fun x_5 () Real)
(declare-fun x_6 () Real)
(declare-fun x_7 () Real)
(declare-fun x_8 () Real)
(declare-fun x_9 () Real)
(declare-fun x_10 () Real)
(declare-fun x_11 () Real)
(declare-fun x_12 () Real)
(declare-fun x_13 () Real)
(declare-fun x_14 () Real)
(declare-fun x_15 () Real)
(declare-fun x_16 () Real)
(declare-fun x_17 () Real)
(declare-fun x_18 () Real)
(declare-fun x_19 () Real)
(declare-fun x_20 () Real)
(declare-fun x_21 () Real)
(declare-fun x_22 () Real)
(declare-fun x_23 () Real)
(declare-fun x_24 () Real)
(declare-fun x_25 () Real)
(declare-fun x_26 () Real)
(declare-fun x_27 () Real)
(declare-fun x_28 () Real)
(declare-fun x_29 () Real)
(declare-fun x_30 () Real)
(declare-fun x_31 () Real)
(declare-fun x_32 () Real)
(declare-fun x_33 () Real)
(declare-fun x_34 () Real)
(declare-fun x_35 () Real)
(declare-fun x_36 () Real)
(declare-fun x_37 () Real)
(declare-fun x_38 () Real)
(declare-fun x_39 () Real)
(declare-fun x_40 () Real)
(declare-fun x_41 () Real)
(declare-fun x_42 () Real)
(declare-fun x_43 () Real)
(declare-fun x_44 () Real)
(declare-fun x_45 () Real)
(declare-fun x_46 () Real)
(declare-fun x_47 () Real)
(declare-fun x_48 () Real)
(declare-fun x_49 () Real)
(declare-fun x_50 () Real)
(declare-fun x_51 () Real)
(declare-fun x_52 () Real)
(declare-fun x_53 () Real)
(declare-fun x_54 () Real)
(assert (let ((?v_45 (<= x_13 x_27)) (?v_49 (<= x_16 x_27)) (?v_53 (<= x_19 x_27)) (?v_57 (<= x_22 x_27)) (?v_61 (<= x_25 x_27)) (?v_15 (= x_34 x_27)) (?v_16 (= x_35 x_27)) (?v_17 (= x_36 x_27)) (?v_18 (= x_37 x_27)) (?v_19 (= x_38 x_27))) (let ((?v_30 (not ?v_15)) (?v_33 (not ?v_16)) (?v_36 (not ?v_17)) (?v_39 (not ?v_18)) (?v_42 (not ?v_19)) (?v_14 (+ (+ x_27 x_28) x_29))) (let ((?v_46 (= x_34 ?v_14)) (?v_50 (= x_35 ?v_14)) (?v_54 (= x_36 ?v_14)) (?v_58 (= x_37 ?v_14)) (?v_62 (= x_38 ?v_14))) (let ((?v_80 (not ?v_46))) (let ((?v_65 (and ?v_45 ?v_80)) (?v_81 (not ?v_50))) (let ((?v_68 (and ?v_49 ?v_81)) (?v_82 (not ?v_54))) (let ((?v_71 (and ?v_53 ?v_82)) (?v_83 (not ?v_58))) (let ((?v_74 (and ?v_57 ?v_83)) (?v_84 (not ?v_62))) (let ((?v_77 (and ?v_61 ?v_84)) (?v_2 (- x_1 x_12)) (?v_3 (- x_13 x_14)) (?v_4 (- x_2 x_15)) (?v_5 (- x_16 x_17)) (?v_6 (- x_3 x_18)) (?v_7 (- x_19 x_20)) (?v_8 (- x_4 x_21)) (?v_9 (- x_22 x_23)) (?v_10 (- x_5 x_24)) (?v_11 (- x_25 x_26)) (?v_12 (- x_27 x_32)) (?v_13 (- x_27 x_33)) (?v_20 (- x_1 x_7)) (?v_21 (- x_13 x_44)) (?v_22 (- x_2 x_8)) (?v_23 (- x_16 x_45)) (?v_24 (- x_3 x_9)) (?v_25 (- x_19 x_46)) (?v_26 (- x_4 x_10)) (?v_27 (- x_22 x_47)) (?v_28 (- x_5 x_11)) (?v_29 (- x_25 x_48)) (?v_31 (- x_1 x_43)) (?v_32 (- x_13 x_27)) (?v_34 (- x_2 x_39)) (?v_35 (- x_16 x_27)) (?v_37 (- x_3 x_40)) (?v_38 (- x_19 x_27)) (?v_40 (- x_4 x_41)) (?v_41 (- x_22 x_27)) (?v_43 (- x_5 x_42)) (?v_44 (- x_25 x_27)) (?v_66 (- x_43 x_7))) (let ((?v_47 (* ?v_66 1000)) (?v_48 (* (- x_43 x_11) 1000)) (?v_51 (* (- x_39 x_7) 1000)) (?v_52 (* (- x_39 x_11) 1000)) (?v_55 (* (- x_40 x_7) 1000)) (?v_56 (* (- x_40 x_11) 1000)) (?v_59 (* (- x_41 x_7) 1000)) (?v_60 (* (- x_41 x_11) 1000)) (?v_63 (* (- x_42 x_7) 1000)) (?v_78 (- x_42 x_11))) (let ((?v_64 (* ?v_78 1000)) (?v_67 (- x_27 x_44)) (?v_69 (- x_39 x_8)) (?v_70 (- x_27 x_45)) (?v_72 (- x_40 x_9)) (?v_73 (- x_27 x_46)) (?v_75 (- x_41 x_10)) (?v_76 (- x_27 x_47)) (?v_79 (- x_27 x_48)) (?v_85 (- x_12 x_43)) (?v_87 (- x_15 x_39)) (?v_89 (- x_18 x_40)) (?v_90 (- x_21 x_41)) (?v_91 (- x_24 x_42)) (?v_0 (+ x_0 (/ 1001 1000))) (?v_1 (+ x_6 (/ 1001 1000))) (?v_86 (* (* x_29 999) (/ 1 1000))) (?v_88 (* (* x_29 1001) (/ 1 1000))) (?v_92 (+ (+ (+ x_30 x_31) (* (* (+ x_32 x_29) 2) (/ 1 999))) (/ 2335 666)))) (and (and (and (and (and (and (and (and (and (and (and (and (and (and (and (and (and (and (and (and (and (and (and (and (and (and (and (and (and (and (and (and (and (and (and (and (and (and (and (and (and (and (and (and (and (and (and (and (and (and (and (and (and (and (and (and (and (and (and (and (and (and (and (and (and (and (and (and (and (and (and (and (and (and (and (and (and (and (and (and (and (and (and (and (and (and (and (and (and (and (and (and (and (and (and (and (and (and (and (and (and (and (and (and (and (and (and (and (and (and (not (<= x_28 0)) (not (<= x_29 0))) (not (<= x_30 0))) (not (< x_31 (+ x_30 (* (* (+ (* (* x_29 1) (/ 1 2)) 1) 1001) (/ 1 999)))))) (< x_32 (- (* (* (- (- x_29 x_31) 1) 999) (/ 1 2)) 1))) (not (< x_32 (* (* (+ (+ (+ x_28 x_30) x_31) (/ 1501 1000)) 1001) (/ 1 999))))) (not (<= x_33 0))) (<= x_33 (- x_28 (+ (+ x_30 (* (* (+ x_29 2) 1001) (/ 1 999))) (/ 1 2))))) (<= x_0 x_1)) (<= x_0 x_2)) (<= x_0 x_3)) (<= x_0 x_4)) (<= x_0 x_5)) (<= x_1 ?v_0)) (<= x_2 ?v_0)) (<= x_3 ?v_0)) (<= x_4 ?v_0)) (<= x_5 ?v_0)) (<= x_6 x_7)) (<= x_6 x_8)) (<= x_6 x_9)) (<= x_6 x_10)) (<= x_6 x_11)) (<= x_7 ?v_1)) (<= x_8 ?v_1)) (<= x_9 ?v_1)) (<= x_10 ?v_1)) (<= x_11 ?v_1)) (<= (* (* ?v_3 999) (/ 1 1000)) ?v_2)) (<= (* (* ?v_5 999) (/ 1 1000)) ?v_4)) (<= (* (* ?v_7 999) (/ 1 1000)) ?v_6)) (<= (* (* ?v_9 999) (/ 1 1000)) ?v_8)) (<= (* (* ?v_11 999) (/ 1 1000)) ?v_10)) (<= ?v_2 (* (* ?v_3 1001) (/ 1 1000)))) (<= ?v_4 (* (* ?v_5 1001) (/ 1 1000)))) (<= ?v_6 (* (* ?v_7 1001) (/ 1 1000)))) (<= ?v_8 (* (* ?v_9 1001) (/ 1 1000)))) (<= ?v_10 (* (* ?v_11 1001) (/ 1 1000)))) (<= ?v_12 x_44)) (<= ?v_12 x_45)) (<= ?v_12 x_46)) (<= ?v_12 x_47)) (<= ?v_12 x_48)) (<= x_44 ?v_13)) (<= x_45 ?v_13)) (<= x_46 ?v_13)) (<= x_47 ?v_13)) (<= x_48 ?v_13)) (<= (- x_44 x_44) x_31)) (<= (- x_45 x_44) x_31)) (<= (- x_46 x_44) x_31)) (<= (- x_47 x_44) x_31)) (<= (- x_48 x_44) x_31)) (<= (- x_44 x_45) x_31)) (<= (- x_45 x_45) x_31)) (<= (- x_46 x_45) x_31)) (<= (- x_47 x_45) x_31)) (<= (- x_48 x_45) x_31)) (<= (- x_44 x_46) x_31)) (<= (- x_45 x_46) x_31)) (<= (- x_46 x_46) x_31)) (<= (- x_47 x_46) x_31)) (<= (- x_48 x_46) x_31)) (<= (- x_44 x_47) x_31)) (<= (- x_45 x_47) x_31)) (<= (- x_46 x_47) x_31)) (<= (- x_47 x_47) x_31)) (<= (- x_48 x_47) x_31)) (<= (- x_44 x_48) x_31)) (<= (- x_45 x_48) x_31)) (<= (- x_46 x_48) x_31)) (<= (- x_47 x_48) x_31)) (<= (- x_48 x_48) x_31)) (or (and ?v_15 (<= x_13 x_49)) ?v_46)) (or (and ?v_16 (<= x_16 x_49)) ?v_50)) (or (and ?v_17 (<= x_19 x_49)) ?v_54)) (or (and ?v_18 (<= x_22 x_49)) ?v_58)) (or (and ?v_19 (<= x_25 x_49)) ?v_62)) (or (or (or (or ?v_15 ?v_16) ?v_17) ?v_18) ?v_19)) (or ?v_30 (and (<= (* (* ?v_21 999) (/ 1 1000)) ?v_20) (<= ?v_20 (* (* ?v_21 1001) (/ 1 1000)))))) (or ?v_33 (and (<= (* (* ?v_23 999) (/ 1 1000)) ?v_22) (<= ?v_22 (* (* ?v_23 1001) (/ 1 1000)))))) (or ?v_36 (and (<= (* (* ?v_25 999) (/ 1 1000)) ?v_24) (<= ?v_24 (* (* ?v_25 1001) (/ 1 1000)))))) (or ?v_39 (and (<= (* (* ?v_27 999) (/ 1 1000)) ?v_26) (<= ?v_26 (* (* ?v_27 1001) (/ 1 1000)))))) (or ?v_42 (and (<= (* (* ?v_29 999) (/ 1 1000)) ?v_28) (<= ?v_28 (* (* ?v_29 1001) (/ 1 1000)))))) (or (or ?v_30 ?v_45) (and (and (not (< x_0 x_43)) (<= (* (* ?v_32 999) (/ 1 1000)) ?v_31)) (<= ?v_31 (* (* ?v_32 1001) (/ 1 1000)))))) (or (or ?v_33 ?v_49) (and (and (not (< x_0 x_39)) (<= (* (* ?v_35 999) (/ 1 1000)) ?v_34)) (<= ?v_34 (* (* ?v_35 1001) (/ 1 1000)))))) (or (or ?v_36 ?v_53) (and (and (not (< x_0 x_40)) (<= (* (* ?v_38 999) (/ 1 1000)) ?v_37)) (<= ?v_37 (* (* ?v_38 1001) (/ 1 1000)))))) (or (or ?v_39 ?v_57) (and (and (not (< x_0 x_41)) (<= (* (* ?v_41 999) (/ 1 1000)) ?v_40)) (<= ?v_40 (* (* ?v_41 1001) (/ 1 1000)))))) (or (or ?v_42 ?v_61) (and (and (not (< x_0 x_42)) (<= (* (* ?v_44 999) (/ 1 1000)) ?v_43)) (<= ?v_43 (* (* ?v_44 1001) (/ 1 1000)))))) (or ?v_65 (and (<= x_50 (+ (+ (* (* (+ (+ (+ x_44 (* ?v_47 (/ 1 999))) x_48) (* ?v_48 (/ 1 999))) 1) (/ 1 2)) x_30) (/ 3001 1998))) (not (< x_50 (- (- (* (* (+ (+ (+ x_44 (* ?v_47 (/ 1 1001))) x_48) (* ?v_48 (/ 1 1001))) 1) (/ 1 2)) x_30) (/ 1 2))))))) (or ?v_68 (and (<= x_51 (+ (+ (* (* (+ (+ (+ x_44 (* ?v_51 (/ 1 999))) x_48) (* ?v_52 (/ 1 999))) 1) (/ 1 2)) x_30) (/ 3001 1998))) (not (< x_51 (- (- (* (* (+ (+ (+ x_44 (* ?v_51 (/ 1 1001))) x_48) (* ?v_52 (/ 1 1001))) 1) (/ 1 2)) x_30) (/ 1 2))))))) (or ?v_71 (and (<= x_52 (+ (+ (* (* (+ (+ (+ x_44 (* ?v_55 (/ 1 999))) x_48) (* ?v_56 (/ 1 999))) 1) (/ 1 2)) x_30) (/ 3001 1998))) (not (< x_52 (- (- (* (* (+ (+ (+ x_44 (* ?v_55 (/ 1 1001))) x_48) (* ?v_56 (/ 1 1001))) 1) (/ 1 2)) x_30) (/ 1 2))))))) (or ?v_74 (and (<= x_53 (+ (+ (* (* (+ (+ (+ x_44 (* ?v_59 (/ 1 999))) x_48) (* ?v_60 (/ 1 999))) 1) (/ 1 2)) x_30) (/ 3001 1998))) (not (< x_53 (- (- (* (* (+ (+ (+ x_44 (* ?v_59 (/ 1 1001))) x_48) (* ?v_60 (/ 1 1001))) 1) (/ 1 2)) x_30) (/ 1 2))))))) (or ?v_77 (and (<= x_54 (+ (+ (* (* (+ (+ (+ x_44 (* ?v_63 (/ 1 999))) x_48) (* ?v_64 (/ 1 999))) 1) (/ 1 2)) x_30) (/ 3001 1998))) (not (< x_54 (- (- (* (* (+ (+ (+ x_44 (* ?v_63 (/ 1 1001))) x_48) (* ?v_64 (/ 1 1001))) 1) (/ 1 2)) x_30) (/ 1 2))))))) (or ?v_65 (and (<= (* (* ?v_67 999) (/ 1 1000)) ?v_66) (<= ?v_66 (* (* ?v_67 1001) (/ 1 1000)))))) (or ?v_68 (and (<= (* (* ?v_70 999) (/ 1 1000)) ?v_69) (<= ?v_69 (* (* ?v_70 1001) (/ 1 1000)))))) (or ?v_71 (and (<= (* (* ?v_73 999) (/ 1 1000)) ?v_72) (<= ?v_72 (* (* ?v_73 1001) (/ 1 1000)))))) (or ?v_74 (and (<= (* (* ?v_76 999) (/ 1 1000)) ?v_75) (<= ?v_75 (* (* ?v_76 1001) (/ 1 1000)))))) (or ?v_77 (and (<= (* (* ?v_79 999) (/ 1 1000)) ?v_78) (<= ?v_78 (* (* ?v_79 1001) (/ 1 1000)))))) (or ?v_80 (= x_14 (+ x_50 x_29)))) (or ?v_81 (= x_17 (+ x_51 x_29)))) (or ?v_82 (= x_20 (+ x_52 x_29)))) (or ?v_83 (= x_23 (+ x_53 x_29)))) (or ?v_84 (= x_26 (+ x_54 x_29)))) (or ?v_80 (and (<= ?v_86 ?v_85) (<= ?v_85 ?v_88)))) (or ?v_81 (and (<= ?v_86 ?v_87) (<= ?v_87 ?v_88)))) (or ?v_82 (and (<= ?v_86 ?v_89) (<= ?v_89 ?v_88)))) (or ?v_83 (and (<= ?v_86 ?v_90) (<= ?v_90 ?v_88)))) (or ?v_84 (and (<= ?v_86 ?v_91) (<= ?v_91 ?v_88)))) (= x_49 (+ x_27 x_29))) (or (or (or (or (or (or (or (or (or (or (or (or (or (or (or (or (or (or (or (or (or (or (or (or (not (<= (- x_13 x_13) ?v_92)) (not (<= (- x_16 x_13) ?v_92))) (not (<= (- x_19 x_13) ?v_92))) (not (<= (- x_22 x_13) ?v_92))) (not (<= (- x_25 x_13) ?v_92))) (not (<= (- x_13 x_16) ?v_92))) (not (<= (- x_16 x_16) ?v_92))) (not (<= (- x_19 x_16) ?v_92))) (not (<= (- x_22 x_16) ?v_92))) (not (<= (- x_25 x_16) ?v_92))) (not (<= (- x_13 x_19) ?v_92))) (not (<= (- x_16 x_19) ?v_92))) (not (<= (- x_19 x_19) ?v_92))) (not (<= (- x_22 x_19) ?v_92))) (not (<= (- x_25 x_19) ?v_92))) (not (<= (- x_13 x_22) ?v_92))) (not (<= (- x_16 x_22) ?v_92))) (not (<= (- x_19 x_22) ?v_92))) (not (<= (- x_22 x_22) ?v_92))) (not (<= (- x_25 x_22) ?v_92))) (not (<= (- x_13 x_25) ?v_92))) (not (<= (- x_16 x_25) ?v_92))) (not (<= (- x_19 x_25) ?v_92))) (not (<= (- x_22 x_25) ?v_92))) (not (<= (- x_25 x_25) ?v_92))))))))))))))))
(check-sat)
(exit)
